FILENAME:   /home/mcs001/s132664/testsets/IP/miplib2017/highschool1-aigio.mps.gz
SETTINGS:   settings_isopr_ostrowskidynamicbranching_avoidsubtreenodes
TIMELIMIT:  7200
OUTPUTNAME: final_miplib_symretope_if_extended_generating_set_cpx_v802__settings_isopr_ostrowskidynamicbranching_avoidsubtreenodes__3__
BINNAME:    bin/symmetries.linux.x86_64.gnu.opt.cpx
BASENAME:   highschool1-aigio.mps.gz
SEED:       3
@01 /home/mcs001/s132664/testsets/IP/miplib2017/highschool1-aigio.mps.gz ===========
@02 highschool1-aigio.mps.gz
@03 1686581196
SCIP version 8.0.2 [precision: 8 byte] [memory: block] [mode: optimized] [LP solver: CPLEX 20.1.0.0] [GitHash: 5f0473c]
Copyright (C) 2002-2022 Konrad-Zuse-Zentrum fuer Informationstechnik Berlin (ZIB)

Symmetry handling routines - (c) Marc Pfetsch, Thomas Rehn, Christopher Hojny.
[GitHash: a1587cb]


Turned off presolver <gateextraction>.
reading parameter file <../settings/settings_isopr_ostrowskidynamicbranching_avoidsubtreenodes.set> ...

Changed settings:
limits/time = 7200
limits/restarts = 0
randomization/randomseedshift = 3
constraints/orbitope/sepafreq = -1
constraints/orbitope/propfreq = 1
presolving/gateextraction/maxrounds = 0
propagating/isoprune/avoidsubtreenodes = TRUE
useisoprune = TRUE


solving problem ...

original problem has 320404 variables (319686 bin, 718 int, 0 impl, 0 cont) and 92568 constraints
presolving:
(round 1, fast)       10274 del vars, 9013 del conss, 185 add conss, 4217 chg bounds, 348 chg sides, 348 chg coeffs, 0 upgd conss, 0 impls, 44602 clqs
(round 2, fast)       21446 del vars, 13389 del conss, 185 add conss, 14235 chg bounds, 348 chg sides, 1088 chg coeffs, 0 upgd conss, 0 impls, 44544 clqs
(round 3, fast)       21824 del vars, 13431 del conss, 185 add conss, 14613 chg bounds, 348 chg sides, 1088 chg coeffs, 0 upgd conss, 0 impls, 44544 clqs
(round 4, exhaustive) 21854 del vars, 15095 del conss, 185 add conss, 14787 chg bounds, 348 chg sides, 1088 chg coeffs, 0 upgd conss, 0 impls, 44504 clqs
(round 5, exhaustive) 21864 del vars, 15115 del conss, 185 add conss, 14787 chg bounds, 348 chg sides, 1134 chg coeffs, 52462 upgd conss, 0 impls, 44514 clqs
(round 6, medium)     29393 del vars, 15115 del conss, 185 add conss, 14787 chg bounds, 7877 chg sides, 8663 chg coeffs, 52462 upgd conss, 0 impls, 37170 clqs
(round 7, fast)       29393 del vars, 22459 del conss, 185 add conss, 14787 chg bounds, 7877 chg sides, 8663 chg coeffs, 52462 upgd conss, 0 impls, 37170 clqs
(round 8, exhaustive) 30143 del vars, 22459 del conss, 185 add conss, 14787 chg bounds, 7877 chg sides, 8663 chg coeffs, 52462 upgd conss, 0 impls, 37170 clqs
Required symmetry:			(1 bin, 0 int, 0 cont); (fixed: 0 bin, 1 int, 0 cont)
Time for symmetry detection:		12.17 	(matrix graph, 472432 nodes, 2287568 edges)
Number of generators:			219 	(max: 219)
Log10 of symmetry group order:		77.3
Number of vars moved by some symmetry:	205261
Total time for symmetry detection:	13.49

Turned off presolver <domcol>.
Turned off presolver <components>.

presolving (9 rounds: 9 fast, 5 medium, 4 exhaustive):
 30209 deleted vars, 22459 deleted constraints, 185 added constraints, 14787 tightened bounds, 0 added holes, 7877 changed sides, 8663 changed coefficients
 0 implications, 37799 cliques
presolved problem has 291101 variables (290927 bin, 174 int, 0 impl, 0 cont) and 70295 constraints
    185 constraints of type <knapsack>
  37170 constraints of type <setppc>
  25176 constraints of type <linear>
   7763 constraints of type <logicor>
      1 constraints of type <symmetries>
transformed objective value is always integral (scale: 1)
Presolving Time: 20.15

 time | node  | left  |LP iter|LP it/n|mem/heur|mdpt |frac |vars |cons |cols |rows |cuts |confs|strbr|  dualbound   | primalbound  |  gap   
 1133s|     1 |     0 |221918 |     - |  2591M |   0 |  26k| 291k|  70k| 291k|  70k|   0 |   9 |   0 | 0.000000e+00 |      --      |    Inf 

SCIP Status        : solving was interrupted [time limit reached]
Solving Time (sec) : 7200.82
Solving Nodes      : 1
Primal Bound       : +1.00000000000000e+20 (0 solutions)
Dual Bound         : +0.00000000000000e+00
Gap                : infinite

Number of variables fixed to 0 by isomorphism pruning:	     0
Number of variables fixed to 1 by isomorphism pruning:	     0
@04 1686588403
